num_cities = 5;

C = [
[0.0, 3.0, 4.0, 2.0, 7.0],
[3.0, 0.0, 4.0, 6.0, 3.0],
[4.0, 4.0, 0.0, 5.0, 8.0],
[2.0, 6.0, 5.0, 0.0, 6.0],
[7.0, 3.0, 8.0, 6.0, 0.0]
];

optimal_cost = 19;
found_cost = 19;
elapsed_time: 0.192072;